12 0 4 11 2 6 1 9 8 3 7 10 5 0 181
999999999 42 10 78 30 10 67 98 80 82 79 79 
42 999999999 83 39 93 89 8 3 89 2 30 36 
10 83 999999999 55 65 50 5 83 95 55 73 18 
78 39 55 999999999 40 8 40 21 29 63 87 84 
30 93 65 40 999999999 14 77 37 63 87 99 28 
10 89 50 8 14 999999999 5 88 13 76 3 26 
67 8 5 40 77 5 999999999 84 46 26 70 57 
98 3 83 21 37 88 84 999999999 13 88 19 72 
80 89 95 29 63 13 46 13 999999999 8 96 29 
82 2 55 63 87 76 26 88 8 999999999 81 86 
79 30 73 87 99 3 70 19 96 81 999999999 66 
79 36 18 84 28 26 57 72 29 86 66 999999999 
